\* rock_paper_scissors *\
Maximize
OBJ: vrs_w
Subject To
_C1: vrs_m_bison >= 0
_C10: vrs_balrog >= 0
_C11: vrs_necalli >= 0
_C12: vrs_laura >= 0
_C13: vrs_birdie >= 0
_C14: vrs_juri >= 0
_C15: vrs_karin >= 0
_C16: vrs_dhalsim >= 0
_C17: vrs_vega >= 0
_C18: vrs_ryu >= 0
_C19: vrs_guile >= 0
_C2: vrs_ken >= 0
_C20: vrs_nash >= 0
_C21: vrs_ibuki >= 0
_C22: vrs_alex + vrs_balrog + vrs_birdie + vrs_cammy + vrs_chun_li
 + vrs_dhalsim + vrs_fang + vrs_guile + vrs_ibuki + vrs_juri + vrs_karin
 + vrs_ken + vrs_laura + vrs_m_bison + vrs_nash + vrs_necalli + vrs_r_mika
 + vrs_rashid + vrs_ryu + vrs_vega + vrs_zangief = 1
_C23: 8.8 vrs_alex + 9.4 vrs_balrog + 8.8 vrs_birdie + 9.4 vrs_cammy
 + 9.8 vrs_chun_li + 9.2 vrs_dhalsim + 8.4 vrs_fang + 9.4 vrs_guile
 + 9.2 vrs_ibuki + 9 vrs_juri + 9.2 vrs_karin + 9 vrs_ken + 9 vrs_laura
 + 9 vrs_m_bison + 9.8 vrs_nash + 9.6 vrs_necalli + 10 vrs_r_mika
 + 8.6 vrs_rashid + 9.4 vrs_ryu + 9 vrs_vega - vrs_w + 8.6 vrs_zangief >= 0
_C24: 8 vrs_alex + 8.8 vrs_balrog + 8.6 vrs_birdie + 8.8 vrs_cammy
 + 10 vrs_chun_li + 8.6 vrs_dhalsim + 8.2 vrs_fang + 8.6 vrs_guile
 + 7.8 vrs_ibuki + 8.8 vrs_juri + 9.2 vrs_karin + 9 vrs_ken + 8 vrs_laura
 + 9 vrs_m_bison + 9.8 vrs_nash + 9 vrs_necalli + 8.8 vrs_r_mika
 + 8.6 vrs_rashid + 9.6 vrs_ryu + 8.6 vrs_vega - vrs_w + 7.4 vrs_zangief >= 0
_C25: 8.2 vrs_alex + 7.4 vrs_balrog + 8.8 vrs_birdie + 9 vrs_cammy
 + 10 vrs_chun_li + 9 vrs_dhalsim + 7.8 vrs_fang + 9.2 vrs_guile + 8 vrs_ibuki
 + 8.8 vrs_juri + 9.4 vrs_karin + 9.2 vrs_ken + 8.2 vrs_laura + 8 vrs_m_bison
 + 9 vrs_nash + 9.4 vrs_necalli + 9 vrs_r_mika + 8.6 vrs_rashid + 9.8 vrs_ryu
 + 8.8 vrs_vega - vrs_w + 9 vrs_zangief >= 0
_C26: 9 vrs_alex + 9.6 vrs_balrog + 9 vrs_birdie + 9.6 vrs_cammy
 + 11.2 vrs_chun_li + 9.4 vrs_dhalsim + 8.8 vrs_fang + 10 vrs_guile
 + 8.8 vrs_ibuki + 10 vrs_juri + 9.6 vrs_karin + 10 vrs_ken + 9.2 vrs_laura
 + 9.2 vrs_m_bison + 10.8 vrs_nash + 10 vrs_necalli + 9.8 vrs_r_mika
 + 9 vrs_rashid + 10.4 vrs_ryu + 9.4 vrs_vega - vrs_w + 8.6 vrs_zangief >= 0
_C27: 9.4 vrs_alex + 8.6 vrs_balrog + 10.8 vrs_birdie + 9.4 vrs_cammy
 + 12.6 vrs_chun_li + 13 vrs_dhalsim + 11 vrs_fang + 12.6 vrs_guile
 + 8.6 vrs_ibuki + 9.8 vrs_juri + 10.4 vrs_karin + 10.6 vrs_ken
 + 8.8 vrs_laura + 9.4 vrs_m_bison + 12 vrs_nash + 10.6 vrs_necalli
 + 9 vrs_r_mika + 11 vrs_rashid + 11.2 vrs_ryu + 10.8 vrs_vega - vrs_w
 + 9 vrs_zangief >= 0
_C28: 9.2 vrs_alex + 9.2 vrs_balrog + 8.6 vrs_birdie + 10.8 vrs_cammy
 + 10.6 vrs_chun_li + 9.4 vrs_dhalsim + 9 vrs_fang + 10 vrs_guile
 + 9.8 vrs_ibuki + 9.4 vrs_juri + 10.2 vrs_karin + 9.8 vrs_ken + 9.8 vrs_laura
 + 9.6 vrs_m_bison + 10.8 vrs_nash + 11 vrs_necalli + 10.2 vrs_r_mika
 + 9.4 vrs_rashid + 10.8 vrs_ryu + 10 vrs_vega - vrs_w + 7 vrs_zangief >= 0
_C29: 9 vrs_alex + 9.4 vrs_balrog + 8.6 vrs_birdie + 10 vrs_cammy
 + 10.6 vrs_chun_li + 8 vrs_dhalsim + 8.6 vrs_fang + 9.8 vrs_guile
 + 9.2 vrs_ibuki + 9.6 vrs_juri + 10 vrs_karin + 9.4 vrs_ken + 9 vrs_laura
 + 9.4 vrs_m_bison + 10 vrs_nash + 10.2 vrs_necalli + 9.4 vrs_r_mika
 + 9 vrs_rashid + 10.2 vrs_ryu + 9.4 vrs_vega - vrs_w + 7 vrs_zangief >= 0
_C3: vrs_r_mika >= 0
_C30: 8.4 vrs_alex + 8.6 vrs_balrog + 8.8 vrs_birdie + 9 vrs_cammy
 + 9.8 vrs_chun_li + 8.2 vrs_dhalsim + 7.2 vrs_fang + 8.6 vrs_guile
 + 8.4 vrs_ibuki + 8.8 vrs_juri + 9.2 vrs_karin + 9.2 vrs_ken + 8.2 vrs_laura
 + 8.6 vrs_m_bison + 8.8 vrs_nash + 9.2 vrs_necalli + 9 vrs_r_mika
 + 8 vrs_rashid + 9.4 vrs_ryu + 8.6 vrs_vega - vrs_w + 8.6 vrs_zangief >= 0
_C31: 6.8 vrs_alex + 7.6 vrs_balrog + 7.2 vrs_birdie + 8.2 vrs_cammy
 + 9 vrs_chun_li + 8.6 vrs_dhalsim + 7.4 vrs_fang + 8.2 vrs_guile
 + 6.8 vrs_ibuki + 7.8 vrs_juri + 8.6 vrs_karin + 8 vrs_ken + 6.8 vrs_laura
 + 8.2 vrs_m_bison + 8.6 vrs_nash + 7.8 vrs_necalli + 8 vrs_r_mika
 + 7.4 vrs_rashid + 8.8 vrs_ryu + 8 vrs_vega - vrs_w + 5.4 vrs_zangief >= 0
_C32: 8.4 vrs_alex + 9 vrs_balrog + 9.2 vrs_birdie + 9.4 vrs_cammy
 + 10.4 vrs_chun_li + 8.4 vrs_dhalsim + 8.8 vrs_fang + 9.6 vrs_guile
 + 7.8 vrs_ibuki + 9 vrs_juri + 10 vrs_karin + 9.2 vrs_ken + 9.6 vrs_laura
 + 8.6 vrs_m_bison + 10.4 vrs_nash + 9.8 vrs_necalli + 10.6 vrs_r_mika
 + 8.6 vrs_rashid + 9.8 vrs_ryu + 9.4 vrs_vega - vrs_w + 9.4 vrs_zangief >= 0
_C33: 8 vrs_alex + 8.2 vrs_balrog + 8.8 vrs_birdie + 8.8 vrs_cammy
 + 10.2 vrs_chun_li + 8.4 vrs_dhalsim + 7 vrs_fang + 8 vrs_guile
 + 7.8 vrs_ibuki + 8.8 vrs_juri + 8.8 vrs_karin + 9 vrs_ken + 7.8 vrs_laura
 + 8.4 vrs_m_bison + 9 vrs_nash + 9 vrs_necalli + 8.6 vrs_r_mika
 + 7.8 vrs_rashid + 9 vrs_ryu + 8.8 vrs_vega - vrs_w + 7.4 vrs_zangief >= 0
_C34: 8.8 vrs_alex + 8.4 vrs_balrog + 9 vrs_birdie + 9.8 vrs_cammy
 + 11.2 vrs_chun_li + 10 vrs_dhalsim + 8.2 vrs_fang + 10.2 vrs_guile
 + 9 vrs_ibuki + 10 vrs_juri + 9.8 vrs_karin + 10 vrs_ken + 9 vrs_laura
 + 9 vrs_m_bison + 9.8 vrs_nash + 10.2 vrs_necalli + 9.8 vrs_r_mika
 + 9 vrs_rashid + 11 vrs_ryu + 9.6 vrs_vega - vrs_w + 9.2 vrs_zangief >= 0
_C35: 9 vrs_alex + 8.8 vrs_balrog + 9 vrs_birdie + 9.2 vrs_cammy
 + 10.8 vrs_chun_li + 10.8 vrs_dhalsim + 9.4 vrs_fang + 10.8 vrs_guile
 + 8.8 vrs_ibuki + 10.4 vrs_juri + 9.4 vrs_karin + 9.4 vrs_ken + 9 vrs_laura
 + 9.2 vrs_m_bison + 11.2 vrs_nash + 9.2 vrs_necalli + 9.2 vrs_r_mika
 + 9.4 vrs_rashid + 9.6 vrs_ryu + 9.4 vrs_vega - vrs_w + 7.2 vrs_zangief >= 0
_C36: 8 vrs_alex + 9 vrs_balrog + 7.6 vrs_birdie + 9.2 vrs_cammy
 + 10.2 vrs_chun_li + 8.6 vrs_dhalsim + 8.6 vrs_fang + 9.2 vrs_guile
 + 8.4 vrs_ibuki + 9 vrs_juri + 9.8 vrs_karin + 9.2 vrs_ken + 8 vrs_laura
 + 9 vrs_m_bison + 9.6 vrs_nash + 9.2 vrs_necalli + 9.2 vrs_r_mika
 + 8.4 vrs_rashid + 10 vrs_ryu + 8.6 vrs_vega - vrs_w + 8.2 vrs_zangief >= 0
_C37: 8.4 vrs_alex + 8 vrs_balrog + 8.6 vrs_birdie + 8.8 vrs_cammy
 + 9.4 vrs_chun_li + 8.4 vrs_dhalsim + 7.8 vrs_fang + 8.6 vrs_guile
 + 8 vrs_ibuki + 8.2 vrs_juri + 9 vrs_karin + 8.8 vrs_ken + 8.2 vrs_laura
 + 8.8 vrs_m_bison + 8.8 vrs_nash + 9.2 vrs_necalli + 8.6 vrs_r_mika
 + 8 vrs_rashid + 9 vrs_ryu + 8.8 vrs_vega - vrs_w + 7.6 vrs_zangief >= 0
_C38: 8.6 vrs_alex + 9.6 vrs_balrog + 7.2 vrs_birdie + 9.8 vrs_cammy
 + 9.4 vrs_chun_li + 9 vrs_dhalsim + 8.6 vrs_fang + 8.6 vrs_guile
 + 9.2 vrs_ibuki + 9.4 vrs_juri + 9.6 vrs_karin + 9.4 vrs_ken + 8 vrs_laura
 + 8.8 vrs_m_bison + 9.2 vrs_nash + 9.6 vrs_necalli + 9 vrs_r_mika
 + 10 vrs_rashid + 9.2 vrs_ryu + 9.6 vrs_vega - vrs_w + 5 vrs_zangief >= 0
_C39: 8.6 vrs_alex + 8.6 vrs_balrog + 8.6 vrs_birdie + 9.4 vrs_cammy
 + 10 vrs_chun_li + 8.4 vrs_dhalsim + 8 vrs_fang + 9 vrs_guile + 8.6 vrs_ibuki
 + 9.4 vrs_juri + 9.2 vrs_karin + 9.4 vrs_ken + 8.4 vrs_laura + 9 vrs_m_bison
 + 9.2 vrs_nash + 9.2 vrs_necalli + 9.2 vrs_r_mika + 8.6 vrs_rashid
 + 10.2 vrs_ryu + 9 vrs_vega - vrs_w + 7.2 vrs_zangief >= 0
_C4: vrs_alex >= 0
_C40: 7.6 vrs_alex + 8.2 vrs_balrog + 8.4 vrs_birdie + 8.6 vrs_cammy
 + 9.2 vrs_chun_li + 8.8 vrs_dhalsim + 7.2 vrs_fang + 8 vrs_guile
 + 7.4 vrs_ibuki + 8 vrs_juri + 9 vrs_karin + 8.4 vrs_ken + 7 vrs_laura
 + 8.6 vrs_m_bison + 9.6 vrs_nash + 9 vrs_necalli + 8.2 vrs_r_mika
 + 7.8 vrs_rashid + 9 vrs_ryu + 7.8 vrs_vega - vrs_w + 6.8 vrs_zangief >= 0
_C41: 8 vrs_alex + 8.4 vrs_balrog + 7.2 vrs_birdie + 9.4 vrs_cammy
 + 9.8 vrs_chun_li + 9.4 vrs_dhalsim + 8 vrs_fang + 9 vrs_guile
 + 8.6 vrs_ibuki + 8.8 vrs_juri + 9.4 vrs_karin + 9.4 vrs_ken + 7.8 vrs_laura
 + 8.6 vrs_m_bison + 9.6 vrs_nash + 10 vrs_necalli + 8.8 vrs_r_mika
 + 8.2 vrs_rashid + 10 vrs_ryu + 9 vrs_vega - vrs_w + 5.4 vrs_zangief >= 0
_C42: 7.2 vrs_alex + 7.6 vrs_balrog + 6.8 vrs_birdie + 9.2 vrs_cammy
 + 9.4 vrs_chun_li + 8.8 vrs_dhalsim + 7.2 vrs_fang + 8.4 vrs_guile
 + 8 vrs_ibuki + 8.4 vrs_juri + 9.2 vrs_karin + 8.2 vrs_ken + 8.2 vrs_laura
 + 8.2 vrs_m_bison + 9 vrs_nash + 9 vrs_necalli + 9 vrs_r_mika + 8 vrs_rashid
 + 8.4 vrs_ryu + 8.8 vrs_vega - vrs_w + 6 vrs_zangief >= 0
_C43: 9.2 vrs_alex + 10.2 vrs_balrog + 9.2 vrs_birdie + 9.6 vrs_cammy
 + 11.2 vrs_chun_li + 8.8 vrs_dhalsim + 8.2 vrs_fang + 9.4 vrs_guile
 + 9 vrs_ibuki + 9.6 vrs_juri + 10 vrs_karin + 10.2 vrs_ken + 9 vrs_laura
 + 8.8 vrs_m_bison + 10 vrs_nash + 10.2 vrs_necalli + 10 vrs_r_mika
 + 8.8 vrs_rashid + 10.6 vrs_ryu + 9.4 vrs_vega - vrs_w + 9.4 vrs_zangief >= 0
_C44: vrs_ibuki = 1
_C5: vrs_zangief >= 0
_C6: vrs_fang >= 0
_C7: vrs_rashid >= 0
_C8: vrs_cammy >= 0
_C9: vrs_chun_li >= 0
Bounds
vrs_alex free
vrs_balrog free
vrs_birdie free
vrs_cammy free
vrs_chun_li free
vrs_dhalsim free
vrs_fang free
vrs_guile free
vrs_ibuki free
vrs_juri free
vrs_karin free
vrs_ken free
vrs_laura free
vrs_m_bison free
vrs_nash free
vrs_necalli free
vrs_r_mika free
vrs_rashid free
vrs_ryu free
vrs_vega free
vrs_w free
vrs_zangief free
End
